(declare-fun e () String)
(declare-fun c () String)
(declare-fun b () String)
(declare-fun d () String)
(declare-fun f () String)
(declare-fun a () String)
(declare-fun h () String)
(assert (= (str.++ "b" f b "be" c) (str.++ f "ehc" d "d")))
(assert (= "bch" (str.++ h e h "h")))
(assert (= (str.++ a c d "bd") "gce"))

(check-sat)
